% demand
num_movements = 41;
loading_factor = [1700, 1350, 1100, 2000, 1250, 1700, 1100, 800, 1550, 950, 1750, 1050, 850, 900, 1350, 800, 1450, 1000, 1750, 1200, 1350, 900, 1300, 800, 1400, 1450, 850, 1100, 1300, 1750, 1050, 800, 1350, 1400, 1150, 950, 1700, 2000, 1000, 950, 1550];
pickup_time = [0, 0, 0, 0, 0, 0, 0, 0, 1, 1, 1, 3, 3, 3, 3, 3, 3, 3, 3, 5, 5, 5, 5, 5, 5, 7, 7, 7, 7, 7, 7, 8, 8, 8, 9, 9, 9, 9, 9, 9, 10];
delivery_time = [3, 1, 1, 3, 1, 3, 1, 3, 3, 2, 8, 4, 4, 5, 4, 6, 7, 4, 4, 6, 8, 7, 6, 7, 7, 8, 9, 8, 8, 11, 9, 11, 9, 9, 11, 10, 11, 11, 11, 11, 11];

% transporter definition
total_capacity = 11000;
num_decks = 4;
capacity = [3000, 3000, 1000, 4000];

% ways out of decks
num_ways_out = 2;
paths_out = array3d(decks, ways_out, decks, [
% ways out of deck d1
2, 4, 0, 0, 3, 4, 0, 0, 

% ways out of deck d2
4, 0, 0, 0, 0, 0, 0, 0,	

% ways out of deck d3
4, 0, 0, 0, 0, 0, 0, 0,	

% ways out of deck d4
0, 0, 0, 0,	0, 0, 0, 0,	

]);

